26	325
1	2	83
1	3	93
1	4	129
1	5	133
1	6	139
1	7	151
1	8	169
1	9	135
1	10	114
1	11	110
1	12	98
1	13	99
1	14	95
1	15	81
1	16	152
1	17	159
1	18	181
1	19	172
1	20	185
1	21	147
1	22	157
1	23	185
1	24	220
1	25	127
1	26	181
2	3	40
2	4	53
2	5	62
2	6	64
2	7	91
2	8	116
2	9	93
2	10	84
2	11	95
2	12	98
2	13	89
2	14	68
2	15	67
2	16	127
2	17	156
2	18	175
2	19	152
2	20	165
2	21	160
2	22	180
2	23	223
2	24	268
2	25	179
2	26	197
3	4	42
3	5	42
3	6	49
3	7	59
3	8	81
3	9	54
3	10	44
3	11	58
3	12	64
3	13	54
3	14	31
3	15	36
3	16	86
3	17	117
3	18	135
3	19	112
3	20	125
3	21	124
3	22	147
3	23	193
3	24	241
3	25	157
3	26	161
4	5	11
4	6	11
4	7	46
4	8	72
4	9	65
4	10	70
4	11	88
4	12	100
4	13	89
4	14	66
4	15	76
4	16	102
4	17	142
4	18	156
4	19	127
4	20	139
4	21	155
4	22	180
4	23	228
4	24	278
4	25	197
4	26	190
5	6	9
5	7	35
5	8	61
5	9	55
5	10	62
5	11	82
5	12	95
5	13	84
5	14	62
5	15	74
5	16	93
5	17	133
5	18	146
5	19	117
5	20	128
5	21	148
5	22	173
5	23	222
5	24	272
5	25	194
5	26	182
6	7	39
6	8	65
6	9	63
6	10	71
6	11	90
6	12	103
6	13	92
6	14	71
6	15	82
6	16	100
6	17	141
6	18	153
6	19	124
6	20	135
6	21	156
6	22	181
6	23	230
6	24	280
6	25	202
6	26	190
7	8	26
7	9	34
7	10	52
7	11	71
7	12	88
7	13	77
7	14	63
7	15	78
7	16	66
7	17	110
7	18	119
7	19	88
7	20	98
7	21	130
7	22	156
7	23	206
7	24	257
7	25	188
7	26	160
8	9	37
8	10	59
8	11	75
8	12	92
8	13	83
8	14	76
8	15	91
8	16	54
8	17	98
8	18	103
8	19	70
8	20	78
8	21	122
8	22	148
8	23	198
8	24	250
8	25	188
8	26	148
9	10	22
9	11	39
9	12	56
9	13	47
9	14	40
9	15	55
9	16	37
9	17	78
9	18	91
9	19	62
9	20	74
9	21	96
9	22	122
9	23	172
9	24	223
9	25	155
9	26	128
10	11	20
10	12	36
10	13	26
10	14	20
10	15	34
10	16	43
10	17	74
10	18	91
10	19	68
10	20	82
10	21	86
10	22	111
10	23	160
10	24	210
10	25	136
10	26	121
11	12	18
11	13	11
11	14	27
11	15	32
11	16	42
11	17	61
11	18	80
11	19	64
11	20	77
11	21	68
11	22	92
11	23	140
11	24	190
11	25	116
11	26	103
12	13	11
12	14	34
12	15	31
12	16	56
12	17	63
12	18	85
12	19	75
12	20	87
12	21	62
12	22	83
12	23	129
12	24	178
12	25	100
12	26	99
13	14	23
13	15	24
13	16	53
13	17	68
13	18	89
13	19	74
13	20	87
13	21	71
13	22	93
13	23	140
13	24	189
13	25	111
13	26	107
14	15	15
14	16	62
14	17	87
14	18	106
14	19	87
14	20	100
14	21	93
14	22	116
14	23	163
14	24	212
14	25	132
14	26	130
15	16	73
15	17	92
15	18	112
15	19	96
15	20	109
15	21	93
15	22	113
15	23	158
15	24	205
15	25	122
15	26	130
16	17	44
16	18	54
16	19	26
16	20	39
16	21	68
16	22	94
16	23	144
16	24	196
16	25	139
16	26	95
17	18	22
17	19	34
17	20	38
17	21	30
17	22	53
17	23	102
17	24	154
17	25	109
17	26	51
18	19	33
18	20	29
18	21	46
18	22	64
18	23	107
18	24	157
18	25	125
18	26	51
19	20	13
19	21	63
19	22	87
19	23	135
19	24	186
19	25	141
19	26	81
20	21	68
20	22	90
20	23	136
20	24	186
20	25	148
20	26	79
21	22	26
21	23	77
21	24	128
21	25	80
21	26	37
22	23	50
22	24	102
22	25	65
22	26	27
23	24	51
23	25	64
23	26	58
24	25	93
24	26	107
25	26	90
